p cnf 348 2736
1 -103 0
1 -104 0
103 -103 0
104 -104 0
18 -115 0
18 -116 0
115 -115 0
116 -116 0
35 -127 0
35 -128 0
127 -127 0
128 -128 0
52 -139 0
52 -140 0
139 -139 0
140 -140 0
69 -151 0
69 -152 0
151 -151 0
152 -152 0
86 -163 0
86 -164 0
163 -163 0
164 -164 0
2 -103 0
2 -104 0
103 -103 0
104 -104 0
19 -115 0
19 -116 0
115 -115 0
116 -116 0
36 -127 0
36 -128 0
127 -127 0
128 -128 0
53 -139 0
53 -140 0
139 -139 0
140 -140 0
70 -151 0
70 -152 0
151 -151 0
152 -152 0
87 -163 0
87 -164 0
163 -163 0
164 -164 0
3 -103 0
3 -104 0
103 -103 0
104 -104 0
20 -115 0
20 -116 0
115 -115 0
116 -116 0
37 -127 0
37 -128 0
127 -127 0
128 -128 0
54 -139 0
54 -140 0
139 -139 0
140 -140 0
71 -151 0
71 -152 0
151 -151 0
152 -152 0
88 -163 0
88 -164 0
163 -163 0
164 -164 0
4 -103 0
4 -104 0
103 -103 0
104 -104 0
21 -115 0
21 -116 0
115 -115 0
116 -116 0
38 -127 0
38 -128 0
127 -127 0
128 -128 0
55 -139 0
55 -140 0
139 -139 0
140 -140 0
72 -151 0
72 -152 0
151 -151 0
152 -152 0
89 -163 0
89 -164 0
163 -163 0
164 -164 0
5 -103 0
5 -104 0
103 -103 0
104 -104 0
22 -115 0
22 -116 0
115 -115 0
116 -116 0
39 -127 0
39 -128 0
127 -127 0
128 -128 0
56 -139 0
56 -140 0
139 -139 0
140 -140 0
73 -151 0
73 -152 0
151 -151 0
152 -152 0
90 -163 0
90 -164 0
163 -163 0
164 -164 0
6 -175 -103 0
-6 175 -103 0
6 175 -104 0
-6 -175 -104 0
23 -175 -115 0
-23 175 -115 0
23 175 -116 0
-23 -175 -116 0
40 -175 -127 0
-40 175 -127 0
40 175 -128 0
-40 -175 -128 0
57 -175 -139 0
-57 175 -139 0
57 175 -140 0
-57 -175 -140 0
74 -175 -151 0
-74 175 -151 0
74 175 -152 0
-74 -175 -152 0
91 -175 -163 0
-91 175 -163 0
91 175 -164 0
-91 -175 -164 0
7 -176 -103 0
-7 176 -103 0
7 176 -104 0
-7 -176 -104 0
24 -176 -115 0
-24 176 -115 0
24 176 -116 0
-24 -176 -116 0
41 -176 -127 0
-41 176 -127 0
41 176 -128 0
-41 -176 -128 0
58 -176 -139 0
-58 176 -139 0
58 176 -140 0
-58 -176 -140 0
75 -176 -151 0
-75 176 -151 0
75 176 -152 0
-75 -176 -152 0
92 -176 -163 0
-92 176 -163 0
92 176 -164 0
-92 -176 -164 0
8 -103 0
8 -104 0
103 -103 0
104 -104 0
25 -115 0
25 -116 0
115 -115 0
116 -116 0
42 -127 0
42 -128 0
127 -127 0
128 -128 0
59 -139 0
59 -140 0
139 -139 0
140 -140 0
76 -151 0
76 -152 0
151 -151 0
152 -152 0
93 -163 0
93 -164 0
163 -163 0
164 -164 0
9 -103 0
9 -104 0
103 -103 0
104 -104 0
26 -115 0
26 -116 0
115 -115 0
116 -116 0
43 -127 0
43 -128 0
127 -127 0
128 -128 0
60 -139 0
60 -140 0
139 -139 0
140 -140 0
77 -151 0
77 -152 0
151 -151 0
152 -152 0
94 -163 0
94 -164 0
163 -163 0
164 -164 0
10 -103 0
10 -104 0
103 -103 0
104 -104 0
27 -115 0
27 -116 0
115 -115 0
116 -116 0
44 -127 0
44 -128 0
127 -127 0
128 -128 0
61 -139 0
61 -140 0
139 -139 0
140 -140 0
78 -151 0
78 -152 0
151 -151 0
152 -152 0
95 -163 0
95 -164 0
163 -163 0
164 -164 0
11 -103 0
11 -104 0
103 -103 0
104 -104 0
28 -115 0
28 -116 0
115 -115 0
116 -116 0
45 -127 0
45 -128 0
127 -127 0
128 -128 0
62 -139 0
62 -140 0
139 -139 0
140 -140 0
79 -151 0
79 -152 0
151 -151 0
152 -152 0
96 -163 0
96 -164 0
163 -163 0
164 -164 0
12 -103 0
12 -104 0
103 -103 0
104 -104 0
29 -115 0
29 -116 0
115 -115 0
116 -116 0
46 -127 0
46 -128 0
127 -127 0
128 -128 0
63 -139 0
63 -140 0
139 -139 0
140 -140 0
80 -151 0
80 -152 0
151 -151 0
152 -152 0
97 -163 0
97 -164 0
163 -163 0
164 -164 0
-13 -103 0
-13 -104 0
103 -103 0
104 -104 0
-30 -115 0
-30 -116 0
115 -115 0
116 -116 0
-47 -127 0
-47 -128 0
127 -127 0
128 -128 0
-64 -139 0
-64 -140 0
139 -139 0
140 -140 0
-81 -151 0
-81 -152 0
151 -151 0
152 -152 0
-98 -163 0
-98 -164 0
163 -163 0
164 -164 0
14 -103 0
14 -104 0
103 -103 0
104 -104 0
31 -115 0
31 -116 0
115 -115 0
116 -116 0
48 -127 0
48 -128 0
127 -127 0
128 -128 0
65 -139 0
65 -140 0
139 -139 0
140 -140 0
82 -151 0
82 -152 0
151 -151 0
152 -152 0
99 -163 0
99 -164 0
163 -163 0
164 -164 0
15 -103 0
15 -104 0
103 -103 0
104 -104 0
32 -115 0
32 -116 0
115 -115 0
116 -116 0
49 -127 0
49 -128 0
127 -127 0
128 -128 0
66 -139 0
66 -140 0
139 -139 0
140 -140 0
83 -151 0
83 -152 0
151 -151 0
152 -152 0
100 -163 0
100 -164 0
163 -163 0
164 -164 0
-16 -103 0
-16 -104 0
103 -103 0
104 -104 0
-33 -115 0
-33 -116 0
115 -115 0
116 -116 0
-50 -127 0
-50 -128 0
127 -127 0
128 -128 0
-67 -139 0
-67 -140 0
139 -139 0
140 -140 0
-84 -151 0
-84 -152 0
151 -151 0
152 -152 0
-101 -163 0
-101 -164 0
163 -163 0
164 -164 0
-17 -103 0
-17 -104 0
103 -103 0
104 -104 0
-34 -115 0
-34 -116 0
115 -115 0
116 -116 0
-51 -127 0
-51 -128 0
127 -127 0
128 -128 0
-68 -139 0
-68 -140 0
139 -139 0
140 -140 0
-85 -151 0
-85 -152 0
151 -151 0
152 -152 0
-102 -163 0
-102 -164 0
163 -163 0
164 -164 0
-277 103 0
277 -103 0
-278 104 0
277 -104 0
-277 -103 0
-278 -104 0
-289 103 277 0
289 -103 0
289 -277 0
-290 104 278 0
290 -104 0
290 -278 0
-289 -115 0
-290 -116 0
-301 115 289 0
301 -115 0
301 -289 0
-302 116 290 0
302 -116 0
302 -290 0
-301 -127 0
-302 -128 0
-313 127 301 0
313 -127 0
313 -301 0
-314 128 302 0
314 -128 0
314 -302 0
-313 -139 0
-314 -140 0
-325 139 313 0
325 -139 0
325 -313 0
-326 140 314 0
326 -140 0
326 -314 0
-325 -151 0
-326 -152 0
-337 151 325 0
337 -151 0
337 -325 0
-338 152 326 0
338 -152 0
338 -326 0
-337 -163 0
-338 -164 0
337 0
338 0
1 -177 -105 0
-1 177 -105 0
1 177 -106 0
-1 -177 -106 0
18 -177 -117 0
-18 177 -117 0
18 177 -118 0
-18 -177 -118 0
35 -177 -129 0
-35 177 -129 0
35 177 -130 0
-35 -177 -130 0
52 -177 -141 0
-52 177 -141 0
52 177 -142 0
-52 -177 -142 0
69 -177 -153 0
-69 177 -153 0
69 177 -154 0
-69 -177 -154 0
86 -177 -165 0
-86 177 -165 0
86 177 -166 0
-86 -177 -166 0
2 -105 0
2 -106 0
105 -105 0
106 -106 0
19 -117 0
19 -118 0
117 -117 0
118 -118 0
36 -129 0
36 -130 0
129 -129 0
130 -130 0
53 -141 0
53 -142 0
141 -141 0
142 -142 0
70 -153 0
70 -154 0
153 -153 0
154 -154 0
87 -165 0
87 -166 0
165 -165 0
166 -166 0
3 -105 0
3 -106 0
105 -105 0
106 -106 0
20 -117 0
20 -118 0
117 -117 0
118 -118 0
37 -129 0
37 -130 0
129 -129 0
130 -130 0
54 -141 0
54 -142 0
141 -141 0
142 -142 0
71 -153 0
71 -154 0
153 -153 0
154 -154 0
88 -165 0
88 -166 0
165 -165 0
166 -166 0
4 -105 0
4 -106 0
105 -105 0
106 -106 0
21 -117 0
21 -118 0
117 -117 0
118 -118 0
38 -129 0
38 -130 0
129 -129 0
130 -130 0
55 -141 0
55 -142 0
141 -141 0
142 -142 0
72 -153 0
72 -154 0
153 -153 0
154 -154 0
89 -165 0
89 -166 0
165 -165 0
166 -166 0
5 -178 -105 0
-5 178 -105 0
5 178 -106 0
-5 -178 -106 0
22 -178 -117 0
-22 178 -117 0
22 178 -118 0
-22 -178 -118 0
39 -178 -129 0
-39 178 -129 0
39 178 -130 0
-39 -178 -130 0
56 -178 -141 0
-56 178 -141 0
56 178 -142 0
-56 -178 -142 0
73 -178 -153 0
-73 178 -153 0
73 178 -154 0
-73 -178 -154 0
90 -178 -165 0
-90 178 -165 0
90 178 -166 0
-90 -178 -166 0
6 -179 -105 0
-6 179 -105 0
6 179 -106 0
-6 -179 -106 0
23 -179 -117 0
-23 179 -117 0
23 179 -118 0
-23 -179 -118 0
40 -179 -129 0
-40 179 -129 0
40 179 -130 0
-40 -179 -130 0
57 -179 -141 0
-57 179 -141 0
57 179 -142 0
-57 -179 -142 0
74 -179 -153 0
-74 179 -153 0
74 179 -154 0
-74 -179 -154 0
91 -179 -165 0
-91 179 -165 0
91 179 -166 0
-91 -179 -166 0
7 -180 -105 0
-7 180 -105 0
7 180 -106 0
-7 -180 -106 0
24 -180 -117 0
-24 180 -117 0
24 180 -118 0
-24 -180 -118 0
41 -180 -129 0
-41 180 -129 0
41 180 -130 0
-41 -180 -130 0
58 -180 -141 0
-58 180 -141 0
58 180 -142 0
-58 -180 -142 0
75 -180 -153 0
-75 180 -153 0
75 180 -154 0
-75 -180 -154 0
92 -180 -165 0
-92 180 -165 0
92 180 -166 0
-92 -180 -166 0
8 -105 0
8 -106 0
105 -105 0
106 -106 0
25 -117 0
25 -118 0
117 -117 0
118 -118 0
42 -129 0
42 -130 0
129 -129 0
130 -130 0
59 -141 0
59 -142 0
141 -141 0
142 -142 0
76 -153 0
76 -154 0
153 -153 0
154 -154 0
93 -165 0
93 -166 0
165 -165 0
166 -166 0
9 -105 0
9 -106 0
105 -105 0
106 -106 0
26 -117 0
26 -118 0
117 -117 0
118 -118 0
43 -129 0
43 -130 0
129 -129 0
130 -130 0
60 -141 0
60 -142 0
141 -141 0
142 -142 0
77 -153 0
77 -154 0
153 -153 0
154 -154 0
94 -165 0
94 -166 0
165 -165 0
166 -166 0
10 -181 -105 0
-10 181 -105 0
10 181 -106 0
-10 -181 -106 0
27 -181 -117 0
-27 181 -117 0
27 181 -118 0
-27 -181 -118 0
44 -181 -129 0
-44 181 -129 0
44 181 -130 0
-44 -181 -130 0
61 -181 -141 0
-61 181 -141 0
61 181 -142 0
-61 -181 -142 0
78 -181 -153 0
-78 181 -153 0
78 181 -154 0
-78 -181 -154 0
95 -181 -165 0
-95 181 -165 0
95 181 -166 0
-95 -181 -166 0
11 -105 0
11 -106 0
105 -105 0
106 -106 0
28 -117 0
28 -118 0
117 -117 0
118 -118 0
45 -129 0
45 -130 0
129 -129 0
130 -130 0
62 -141 0
62 -142 0
141 -141 0
142 -142 0
79 -153 0
79 -154 0
153 -153 0
154 -154 0
96 -165 0
96 -166 0
165 -165 0
166 -166 0
12 -105 0
12 -106 0
105 -105 0
106 -106 0
29 -117 0
29 -118 0
117 -117 0
118 -118 0
46 -129 0
46 -130 0
129 -129 0
130 -130 0
63 -141 0
63 -142 0
141 -141 0
142 -142 0
80 -153 0
80 -154 0
153 -153 0
154 -154 0
97 -165 0
97 -166 0
165 -165 0
166 -166 0
13 -182 -105 0
-13 182 -105 0
13 182 -106 0
-13 -182 -106 0
30 -182 -117 0
-30 182 -117 0
30 182 -118 0
-30 -182 -118 0
47 -182 -129 0
-47 182 -129 0
47 182 -130 0
-47 -182 -130 0
64 -182 -141 0
-64 182 -141 0
64 182 -142 0
-64 -182 -142 0
81 -182 -153 0
-81 182 -153 0
81 182 -154 0
-81 -182 -154 0
98 -182 -165 0
-98 182 -165 0
98 182 -166 0
-98 -182 -166 0
14 -105 0
14 -106 0
105 -105 0
106 -106 0
31 -117 0
31 -118 0
117 -117 0
118 -118 0
48 -129 0
48 -130 0
129 -129 0
130 -130 0
65 -141 0
65 -142 0
141 -141 0
142 -142 0
82 -153 0
82 -154 0
153 -153 0
154 -154 0
99 -165 0
99 -166 0
165 -165 0
166 -166 0
15 -183 -105 0
-15 183 -105 0
15 183 -106 0
-15 -183 -106 0
32 -183 -117 0
-32 183 -117 0
32 183 -118 0
-32 -183 -118 0
49 -183 -129 0
-49 183 -129 0
49 183 -130 0
-49 -183 -130 0
66 -183 -141 0
-66 183 -141 0
66 183 -142 0
-66 -183 -142 0
83 -183 -153 0
-83 183 -153 0
83 183 -154 0
-83 -183 -154 0
100 -183 -165 0
-100 183 -165 0
100 183 -166 0
-100 -183 -166 0
16 -184 -105 0
-16 184 -105 0
16 184 -106 0
-16 -184 -106 0
33 -184 -117 0
-33 184 -117 0
33 184 -118 0
-33 -184 -118 0
50 -184 -129 0
-50 184 -129 0
50 184 -130 0
-50 -184 -130 0
67 -184 -141 0
-67 184 -141 0
67 184 -142 0
-67 -184 -142 0
84 -184 -153 0
-84 184 -153 0
84 184 -154 0
-84 -184 -154 0
101 -184 -165 0
-101 184 -165 0
101 184 -166 0
-101 -184 -166 0
17 -185 -105 0
-17 185 -105 0
17 185 -106 0
-17 -185 -106 0
34 -185 -117 0
-34 185 -117 0
34 185 -118 0
-34 -185 -118 0
51 -185 -129 0
-51 185 -129 0
51 185 -130 0
-51 -185 -130 0
68 -185 -141 0
-68 185 -141 0
68 185 -142 0
-68 -185 -142 0
85 -185 -153 0
-85 185 -153 0
85 185 -154 0
-85 -185 -154 0
102 -185 -165 0
-102 185 -165 0
102 185 -166 0
-102 -185 -166 0
-279 105 0
279 -105 0
-280 106 0
279 -106 0
-279 -105 0
-280 -106 0
-291 105 279 0
291 -105 0
291 -279 0
-292 106 280 0
292 -106 0
292 -280 0
-291 -117 0
-292 -118 0
-303 117 291 0
303 -117 0
303 -291 0
-304 118 292 0
304 -118 0
304 -292 0
-303 -129 0
-304 -130 0
-315 129 303 0
315 -129 0
315 -303 0
-316 130 304 0
316 -130 0
316 -304 0
-315 -141 0
-316 -142 0
-327 141 315 0
327 -141 0
327 -315 0
-328 142 316 0
328 -142 0
328 -316 0
-327 -153 0
-328 -154 0
-339 153 327 0
339 -153 0
339 -327 0
-340 154 328 0
340 -154 0
340 -328 0
-339 -165 0
-340 -166 0
339 0
340 0
-1 -107 0
-1 -108 0
107 -107 0
108 -108 0
-18 -119 0
-18 -120 0
119 -119 0
120 -120 0
-35 -131 0
-35 -132 0
131 -131 0
132 -132 0
-52 -143 0
-52 -144 0
143 -143 0
144 -144 0
-69 -155 0
-69 -156 0
155 -155 0
156 -156 0
-86 -167 0
-86 -168 0
167 -167 0
168 -168 0
2 -107 0
2 -108 0
107 -107 0
108 -108 0
19 -119 0
19 -120 0
119 -119 0
120 -120 0
36 -131 0
36 -132 0
131 -131 0
132 -132 0
53 -143 0
53 -144 0
143 -143 0
144 -144 0
70 -155 0
70 -156 0
155 -155 0
156 -156 0
87 -167 0
87 -168 0
167 -167 0
168 -168 0
3 -107 0
3 -108 0
107 -107 0
108 -108 0
20 -119 0
20 -120 0
119 -119 0
120 -120 0
37 -131 0
37 -132 0
131 -131 0
132 -132 0
54 -143 0
54 -144 0
143 -143 0
144 -144 0
71 -155 0
71 -156 0
155 -155 0
156 -156 0
88 -167 0
88 -168 0
167 -167 0
168 -168 0
4 -107 0
4 -108 0
107 -107 0
108 -108 0
21 -119 0
21 -120 0
119 -119 0
120 -120 0
38 -131 0
38 -132 0
131 -131 0
132 -132 0
55 -143 0
55 -144 0
143 -143 0
144 -144 0
72 -155 0
72 -156 0
155 -155 0
156 -156 0
89 -167 0
89 -168 0
167 -167 0
168 -168 0
5 -107 0
5 -108 0
107 -107 0
108 -108 0
22 -119 0
22 -120 0
119 -119 0
120 -120 0
39 -131 0
39 -132 0
131 -131 0
132 -132 0
56 -143 0
56 -144 0
143 -143 0
144 -144 0
73 -155 0
73 -156 0
155 -155 0
156 -156 0
90 -167 0
90 -168 0
167 -167 0
168 -168 0
6 -186 -107 0
-6 186 -107 0
6 186 -108 0
-6 -186 -108 0
23 -186 -119 0
-23 186 -119 0
23 186 -120 0
-23 -186 -120 0
40 -186 -131 0
-40 186 -131 0
40 186 -132 0
-40 -186 -132 0
57 -186 -143 0
-57 186 -143 0
57 186 -144 0
-57 -186 -144 0
74 -186 -155 0
-74 186 -155 0
74 186 -156 0
-74 -186 -156 0
91 -186 -167 0
-91 186 -167 0
91 186 -168 0
-91 -186 -168 0
7 -187 -107 0
-7 187 -107 0
7 187 -108 0
-7 -187 -108 0
24 -187 -119 0
-24 187 -119 0
24 187 -120 0
-24 -187 -120 0
41 -187 -131 0
-41 187 -131 0
41 187 -132 0
-41 -187 -132 0
58 -187 -143 0
-58 187 -143 0
58 187 -144 0
-58 -187 -144 0
75 -187 -155 0
-75 187 -155 0
75 187 -156 0
-75 -187 -156 0
92 -187 -167 0
-92 187 -167 0
92 187 -168 0
-92 -187 -168 0
8 -188 -107 0
-8 188 -107 0
8 188 -108 0
-8 -188 -108 0
25 -188 -119 0
-25 188 -119 0
25 188 -120 0
-25 -188 -120 0
42 -188 -131 0
-42 188 -131 0
42 188 -132 0
-42 -188 -132 0
59 -188 -143 0
-59 188 -143 0
59 188 -144 0
-59 -188 -144 0
76 -188 -155 0
-76 188 -155 0
76 188 -156 0
-76 -188 -156 0
93 -188 -167 0
-93 188 -167 0
93 188 -168 0
-93 -188 -168 0
9 -189 -107 0
-9 189 -107 0
9 189 -108 0
-9 -189 -108 0
26 -189 -119 0
-26 189 -119 0
26 189 -120 0
-26 -189 -120 0
43 -189 -131 0
-43 189 -131 0
43 189 -132 0
-43 -189 -132 0
60 -189 -143 0
-60 189 -143 0
60 189 -144 0
-60 -189 -144 0
77 -189 -155 0
-77 189 -155 0
77 189 -156 0
-77 -189 -156 0
94 -189 -167 0
-94 189 -167 0
94 189 -168 0
-94 -189 -168 0
10 -190 -107 0
-10 190 -107 0
10 190 -108 0
-10 -190 -108 0
27 -190 -119 0
-27 190 -119 0
27 190 -120 0
-27 -190 -120 0
44 -190 -131 0
-44 190 -131 0
44 190 -132 0
-44 -190 -132 0
61 -190 -143 0
-61 190 -143 0
61 190 -144 0
-61 -190 -144 0
78 -190 -155 0
-78 190 -155 0
78 190 -156 0
-78 -190 -156 0
95 -190 -167 0
-95 190 -167 0
95 190 -168 0
-95 -190 -168 0
11 -191 -107 0
-11 191 -107 0
11 191 -108 0
-11 -191 -108 0
28 -191 -119 0
-28 191 -119 0
28 191 -120 0
-28 -191 -120 0
45 -191 -131 0
-45 191 -131 0
45 191 -132 0
-45 -191 -132 0
62 -191 -143 0
-62 191 -143 0
62 191 -144 0
-62 -191 -144 0
79 -191 -155 0
-79 191 -155 0
79 191 -156 0
-79 -191 -156 0
96 -191 -167 0
-96 191 -167 0
96 191 -168 0
-96 -191 -168 0
12 -192 -107 0
-12 192 -107 0
12 192 -108 0
-12 -192 -108 0
29 -192 -119 0
-29 192 -119 0
29 192 -120 0
-29 -192 -120 0
46 -192 -131 0
-46 192 -131 0
46 192 -132 0
-46 -192 -132 0
63 -192 -143 0
-63 192 -143 0
63 192 -144 0
-63 -192 -144 0
80 -192 -155 0
-80 192 -155 0
80 192 -156 0
-80 -192 -156 0
97 -192 -167 0
-97 192 -167 0
97 192 -168 0
-97 -192 -168 0
13 -107 0
13 -108 0
107 -107 0
108 -108 0
30 -119 0
30 -120 0
119 -119 0
120 -120 0
47 -131 0
47 -132 0
131 -131 0
132 -132 0
64 -143 0
64 -144 0
143 -143 0
144 -144 0
81 -155 0
81 -156 0
155 -155 0
156 -156 0
98 -167 0
98 -168 0
167 -167 0
168 -168 0
14 -193 -107 0
-14 193 -107 0
14 193 -108 0
-14 -193 -108 0
31 -193 -119 0
-31 193 -119 0
31 193 -120 0
-31 -193 -120 0
48 -193 -131 0
-48 193 -131 0
48 193 -132 0
-48 -193 -132 0
65 -193 -143 0
-65 193 -143 0
65 193 -144 0
-65 -193 -144 0
82 -193 -155 0
-82 193 -155 0
82 193 -156 0
-82 -193 -156 0
99 -193 -167 0
-99 193 -167 0
99 193 -168 0
-99 -193 -168 0
15 -194 -107 0
-15 194 -107 0
15 194 -108 0
-15 -194 -108 0
32 -194 -119 0
-32 194 -119 0
32 194 -120 0
-32 -194 -120 0
49 -194 -131 0
-49 194 -131 0
49 194 -132 0
-49 -194 -132 0
66 -194 -143 0
-66 194 -143 0
66 194 -144 0
-66 -194 -144 0
83 -194 -155 0
-83 194 -155 0
83 194 -156 0
-83 -194 -156 0
100 -194 -167 0
-100 194 -167 0
100 194 -168 0
-100 -194 -168 0
16 -107 0
16 -108 0
107 -107 0
108 -108 0
33 -119 0
33 -120 0
119 -119 0
120 -120 0
50 -131 0
50 -132 0
131 -131 0
132 -132 0
67 -143 0
67 -144 0
143 -143 0
144 -144 0
84 -155 0
84 -156 0
155 -155 0
156 -156 0
101 -167 0
101 -168 0
167 -167 0
168 -168 0
17 -107 0
17 -108 0
107 -107 0
108 -108 0
34 -119 0
34 -120 0
119 -119 0
120 -120 0
51 -131 0
51 -132 0
131 -131 0
132 -132 0
68 -143 0
68 -144 0
143 -143 0
144 -144 0
85 -155 0
85 -156 0
155 -155 0
156 -156 0
102 -167 0
102 -168 0
167 -167 0
168 -168 0
-281 107 0
281 -107 0
-282 108 0
281 -108 0
-281 -107 0
-282 -108 0
-293 107 281 0
293 -107 0
293 -281 0
-294 108 282 0
294 -108 0
294 -282 0
-293 -119 0
-294 -120 0
-305 119 293 0
305 -119 0
305 -293 0
-306 120 294 0
306 -120 0
306 -294 0
-305 -131 0
-306 -132 0
-317 131 305 0
317 -131 0
317 -305 0
-318 132 306 0
318 -132 0
318 -306 0
-317 -143 0
-318 -144 0
-329 143 317 0
329 -143 0
329 -317 0
-330 144 318 0
330 -144 0
330 -318 0
-329 -155 0
-330 -156 0
-341 155 329 0
341 -155 0
341 -329 0
-342 156 330 0
342 -156 0
342 -330 0
-341 -167 0
-342 -168 0
341 0
342 0
-1 -109 0
-1 -110 0
109 -109 0
110 -110 0
-18 -121 0
-18 -122 0
121 -121 0
122 -122 0
-35 -133 0
-35 -134 0
133 -133 0
134 -134 0
-52 -145 0
-52 -146 0
145 -145 0
146 -146 0
-69 -157 0
-69 -158 0
157 -157 0
158 -158 0
-86 -169 0
-86 -170 0
169 -169 0
170 -170 0
2 -109 0
2 -110 0
109 -109 0
110 -110 0
19 -121 0
19 -122 0
121 -121 0
122 -122 0
36 -133 0
36 -134 0
133 -133 0
134 -134 0
53 -145 0
53 -146 0
145 -145 0
146 -146 0
70 -157 0
70 -158 0
157 -157 0
158 -158 0
87 -169 0
87 -170 0
169 -169 0
170 -170 0
3 -195 -109 0
-3 195 -109 0
3 195 -110 0
-3 -195 -110 0
20 -195 -121 0
-20 195 -121 0
20 195 -122 0
-20 -195 -122 0
37 -195 -133 0
-37 195 -133 0
37 195 -134 0
-37 -195 -134 0
54 -195 -145 0
-54 195 -145 0
54 195 -146 0
-54 -195 -146 0
71 -195 -157 0
-71 195 -157 0
71 195 -158 0
-71 -195 -158 0
88 -195 -169 0
-88 195 -169 0
88 195 -170 0
-88 -195 -170 0
4 -109 0
4 -110 0
109 -109 0
110 -110 0
21 -121 0
21 -122 0
121 -121 0
122 -122 0
38 -133 0
38 -134 0
133 -133 0
134 -134 0
55 -145 0
55 -146 0
145 -145 0
146 -146 0
72 -157 0
72 -158 0
157 -157 0
158 -158 0
89 -169 0
89 -170 0
169 -169 0
170 -170 0
5 -196 -109 0
-5 196 -109 0
5 196 -110 0
-5 -196 -110 0
22 -196 -121 0
-22 196 -121 0
22 196 -122 0
-22 -196 -122 0
39 -196 -133 0
-39 196 -133 0
39 196 -134 0
-39 -196 -134 0
56 -196 -145 0
-56 196 -145 0
56 196 -146 0
-56 -196 -146 0
73 -196 -157 0
-73 196 -157 0
73 196 -158 0
-73 -196 -158 0
90 -196 -169 0
-90 196 -169 0
90 196 -170 0
-90 -196 -170 0
6 -197 -109 0
-6 197 -109 0
6 197 -110 0
-6 -197 -110 0
23 -197 -121 0
-23 197 -121 0
23 197 -122 0
-23 -197 -122 0
40 -197 -133 0
-40 197 -133 0
40 197 -134 0
-40 -197 -134 0
57 -197 -145 0
-57 197 -145 0
57 197 -146 0
-57 -197 -146 0
74 -197 -157 0
-74 197 -157 0
74 197 -158 0
-74 -197 -158 0
91 -197 -169 0
-91 197 -169 0
91 197 -170 0
-91 -197 -170 0
7 -198 -109 0
-7 198 -109 0
7 198 -110 0
-7 -198 -110 0
24 -198 -121 0
-24 198 -121 0
24 198 -122 0
-24 -198 -122 0
41 -198 -133 0
-41 198 -133 0
41 198 -134 0
-41 -198 -134 0
58 -198 -145 0
-58 198 -145 0
58 198 -146 0
-58 -198 -146 0
75 -198 -157 0
-75 198 -157 0
75 198 -158 0
-75 -198 -158 0
92 -198 -169 0
-92 198 -169 0
92 198 -170 0
-92 -198 -170 0
8 -109 0
8 -110 0
109 -109 0
110 -110 0
25 -121 0
25 -122 0
121 -121 0
122 -122 0
42 -133 0
42 -134 0
133 -133 0
134 -134 0
59 -145 0
59 -146 0
145 -145 0
146 -146 0
76 -157 0
76 -158 0
157 -157 0
158 -158 0
93 -169 0
93 -170 0
169 -169 0
170 -170 0
9 -109 0
9 -110 0
109 -109 0
110 -110 0
26 -121 0
26 -122 0
121 -121 0
122 -122 0
43 -133 0
43 -134 0
133 -133 0
134 -134 0
60 -145 0
60 -146 0
145 -145 0
146 -146 0
77 -157 0
77 -158 0
157 -157 0
158 -158 0
94 -169 0
94 -170 0
169 -169 0
170 -170 0
10 -109 0
10 -110 0
109 -109 0
110 -110 0
27 -121 0
27 -122 0
121 -121 0
122 -122 0
44 -133 0
44 -134 0
133 -133 0
134 -134 0
61 -145 0
61 -146 0
145 -145 0
146 -146 0
78 -157 0
78 -158 0
157 -157 0
158 -158 0
95 -169 0
95 -170 0
169 -169 0
170 -170 0
11 -199 -109 0
-11 199 -109 0
11 199 -110 0
-11 -199 -110 0
28 -199 -121 0
-28 199 -121 0
28 199 -122 0
-28 -199 -122 0
45 -199 -133 0
-45 199 -133 0
45 199 -134 0
-45 -199 -134 0
62 -199 -145 0
-62 199 -145 0
62 199 -146 0
-62 -199 -146 0
79 -199 -157 0
-79 199 -157 0
79 199 -158 0
-79 -199 -158 0
96 -199 -169 0
-96 199 -169 0
96 199 -170 0
-96 -199 -170 0
12 -109 0
12 -110 0
109 -109 0
110 -110 0
29 -121 0
29 -122 0
121 -121 0
122 -122 0
46 -133 0
46 -134 0
133 -133 0
134 -134 0
63 -145 0
63 -146 0
145 -145 0
146 -146 0
80 -157 0
80 -158 0
157 -157 0
158 -158 0
97 -169 0
97 -170 0
169 -169 0
170 -170 0
13 -200 -109 0
-13 200 -109 0
13 200 -110 0
-13 -200 -110 0
30 -200 -121 0
-30 200 -121 0
30 200 -122 0
-30 -200 -122 0
47 -200 -133 0
-47 200 -133 0
47 200 -134 0
-47 -200 -134 0
64 -200 -145 0
-64 200 -145 0
64 200 -146 0
-64 -200 -146 0
81 -200 -157 0
-81 200 -157 0
81 200 -158 0
-81 -200 -158 0
98 -200 -169 0
-98 200 -169 0
98 200 -170 0
-98 -200 -170 0
14 -109 0
14 -110 0
109 -109 0
110 -110 0
31 -121 0
31 -122 0
121 -121 0
122 -122 0
48 -133 0
48 -134 0
133 -133 0
134 -134 0
65 -145 0
65 -146 0
145 -145 0
146 -146 0
82 -157 0
82 -158 0
157 -157 0
158 -158 0
99 -169 0
99 -170 0
169 -169 0
170 -170 0
15 -201 -109 0
-15 201 -109 0
15 201 -110 0
-15 -201 -110 0
32 -201 -121 0
-32 201 -121 0
32 201 -122 0
-32 -201 -122 0
49 -201 -133 0
-49 201 -133 0
49 201 -134 0
-49 -201 -134 0
66 -201 -145 0
-66 201 -145 0
66 201 -146 0
-66 -201 -146 0
83 -201 -157 0
-83 201 -157 0
83 201 -158 0
-83 -201 -158 0
100 -201 -169 0
-100 201 -169 0
100 201 -170 0
-100 -201 -170 0
16 -202 -109 0
-16 202 -109 0
16 202 -110 0
-16 -202 -110 0
33 -202 -121 0
-33 202 -121 0
33 202 -122 0
-33 -202 -122 0
50 -202 -133 0
-50 202 -133 0
50 202 -134 0
-50 -202 -134 0
67 -202 -145 0
-67 202 -145 0
67 202 -146 0
-67 -202 -146 0
84 -202 -157 0
-84 202 -157 0
84 202 -158 0
-84 -202 -158 0
101 -202 -169 0
-101 202 -169 0
101 202 -170 0
-101 -202 -170 0
17 -203 -109 0
-17 203 -109 0
17 203 -110 0
-17 -203 -110 0
34 -203 -121 0
-34 203 -121 0
34 203 -122 0
-34 -203 -122 0
51 -203 -133 0
-51 203 -133 0
51 203 -134 0
-51 -203 -134 0
68 -203 -145 0
-68 203 -145 0
68 203 -146 0
-68 -203 -146 0
85 -203 -157 0
-85 203 -157 0
85 203 -158 0
-85 -203 -158 0
102 -203 -169 0
-102 203 -169 0
102 203 -170 0
-102 -203 -170 0
-283 109 0
283 -109 0
-284 110 0
283 -110 0
-283 -109 0
-284 -110 0
-295 109 283 0
295 -109 0
295 -283 0
-296 110 284 0
296 -110 0
296 -284 0
-295 -121 0
-296 -122 0
-307 121 295 0
307 -121 0
307 -295 0
-308 122 296 0
308 -122 0
308 -296 0
-307 -133 0
-308 -134 0
-319 133 307 0
319 -133 0
319 -307 0
-320 134 308 0
320 -134 0
320 -308 0
-319 -145 0
-320 -146 0
-331 145 319 0
331 -145 0
331 -319 0
-332 146 320 0
332 -146 0
332 -320 0
-331 -157 0
-332 -158 0
-343 157 331 0
343 -157 0
343 -331 0
-344 158 332 0
344 -158 0
344 -332 0
-343 -169 0
-344 -170 0
343 0
344 0
1 -111 0
1 -112 0
111 -111 0
112 -112 0
18 -123 0
18 -124 0
123 -123 0
124 -124 0
35 -135 0
35 -136 0
135 -135 0
136 -136 0
52 -147 0
52 -148 0
147 -147 0
148 -148 0
69 -159 0
69 -160 0
159 -159 0
160 -160 0
86 -171 0
86 -172 0
171 -171 0
172 -172 0
2 -111 0
2 -112 0
111 -111 0
112 -112 0
19 -123 0
19 -124 0
123 -123 0
124 -124 0
36 -135 0
36 -136 0
135 -135 0
136 -136 0
53 -147 0
53 -148 0
147 -147 0
148 -148 0
70 -159 0
70 -160 0
159 -159 0
160 -160 0
87 -171 0
87 -172 0
171 -171 0
172 -172 0
3 -111 0
3 -112 0
111 -111 0
112 -112 0
20 -123 0
20 -124 0
123 -123 0
124 -124 0
37 -135 0
37 -136 0
135 -135 0
136 -136 0
54 -147 0
54 -148 0
147 -147 0
148 -148 0
71 -159 0
71 -160 0
159 -159 0
160 -160 0
88 -171 0
88 -172 0
171 -171 0
172 -172 0
4 -111 0
4 -112 0
111 -111 0
112 -112 0
21 -123 0
21 -124 0
123 -123 0
124 -124 0
38 -135 0
38 -136 0
135 -135 0
136 -136 0
55 -147 0
55 -148 0
147 -147 0
148 -148 0
72 -159 0
72 -160 0
159 -159 0
160 -160 0
89 -171 0
89 -172 0
171 -171 0
172 -172 0
5 -111 0
5 -112 0
111 -111 0
112 -112 0
22 -123 0
22 -124 0
123 -123 0
124 -124 0
39 -135 0
39 -136 0
135 -135 0
136 -136 0
56 -147 0
56 -148 0
147 -147 0
148 -148 0
73 -159 0
73 -160 0
159 -159 0
160 -160 0
90 -171 0
90 -172 0
171 -171 0
172 -172 0
6 -204 -111 0
-6 204 -111 0
6 204 -112 0
-6 -204 -112 0
23 -204 -123 0
-23 204 -123 0
23 204 -124 0
-23 -204 -124 0
40 -204 -135 0
-40 204 -135 0
40 204 -136 0
-40 -204 -136 0
57 -204 -147 0
-57 204 -147 0
57 204 -148 0
-57 -204 -148 0
74 -204 -159 0
-74 204 -159 0
74 204 -160 0
-74 -204 -160 0
91 -204 -171 0
-91 204 -171 0
91 204 -172 0
-91 -204 -172 0
7 -205 -111 0
-7 205 -111 0
7 205 -112 0
-7 -205 -112 0
24 -205 -123 0
-24 205 -123 0
24 205 -124 0
-24 -205 -124 0
41 -205 -135 0
-41 205 -135 0
41 205 -136 0
-41 -205 -136 0
58 -205 -147 0
-58 205 -147 0
58 205 -148 0
-58 -205 -148 0
75 -205 -159 0
-75 205 -159 0
75 205 -160 0
-75 -205 -160 0
92 -205 -171 0
-92 205 -171 0
92 205 -172 0
-92 -205 -172 0
8 -206 -111 0
-8 206 -111 0
8 206 -112 0
-8 -206 -112 0
25 -206 -123 0
-25 206 -123 0
25 206 -124 0
-25 -206 -124 0
42 -206 -135 0
-42 206 -135 0
42 206 -136 0
-42 -206 -136 0
59 -206 -147 0
-59 206 -147 0
59 206 -148 0
-59 -206 -148 0
76 -206 -159 0
-76 206 -159 0
76 206 -160 0
-76 -206 -160 0
93 -206 -171 0
-93 206 -171 0
93 206 -172 0
-93 -206 -172 0
9 -207 -111 0
-9 207 -111 0
9 207 -112 0
-9 -207 -112 0
26 -207 -123 0
-26 207 -123 0
26 207 -124 0
-26 -207 -124 0
43 -207 -135 0
-43 207 -135 0
43 207 -136 0
-43 -207 -136 0
60 -207 -147 0
-60 207 -147 0
60 207 -148 0
-60 -207 -148 0
77 -207 -159 0
-77 207 -159 0
77 207 -160 0
-77 -207 -160 0
94 -207 -171 0
-94 207 -171 0
94 207 -172 0
-94 -207 -172 0
10 -208 -111 0
-10 208 -111 0
10 208 -112 0
-10 -208 -112 0
27 -208 -123 0
-27 208 -123 0
27 208 -124 0
-27 -208 -124 0
44 -208 -135 0
-44 208 -135 0
44 208 -136 0
-44 -208 -136 0
61 -208 -147 0
-61 208 -147 0
61 208 -148 0
-61 -208 -148 0
78 -208 -159 0
-78 208 -159 0
78 208 -160 0
-78 -208 -160 0
95 -208 -171 0
-95 208 -171 0
95 208 -172 0
-95 -208 -172 0
11 -209 -111 0
-11 209 -111 0
11 209 -112 0
-11 -209 -112 0
28 -209 -123 0
-28 209 -123 0
28 209 -124 0
-28 -209 -124 0
45 -209 -135 0
-45 209 -135 0
45 209 -136 0
-45 -209 -136 0
62 -209 -147 0
-62 209 -147 0
62 209 -148 0
-62 -209 -148 0
79 -209 -159 0
-79 209 -159 0
79 209 -160 0
-79 -209 -160 0
96 -209 -171 0
-96 209 -171 0
96 209 -172 0
-96 -209 -172 0
12 -111 0
12 -112 0
111 -111 0
112 -112 0
29 -123 0
29 -124 0
123 -123 0
124 -124 0
46 -135 0
46 -136 0
135 -135 0
136 -136 0
63 -147 0
63 -148 0
147 -147 0
148 -148 0
80 -159 0
80 -160 0
159 -159 0
160 -160 0
97 -171 0
97 -172 0
171 -171 0
172 -172 0
13 -210 -111 0
-13 210 -111 0
13 210 -112 0
-13 -210 -112 0
30 -210 -123 0
-30 210 -123 0
30 210 -124 0
-30 -210 -124 0
47 -210 -135 0
-47 210 -135 0
47 210 -136 0
-47 -210 -136 0
64 -210 -147 0
-64 210 -147 0
64 210 -148 0
-64 -210 -148 0
81 -210 -159 0
-81 210 -159 0
81 210 -160 0
-81 -210 -160 0
98 -210 -171 0
-98 210 -171 0
98 210 -172 0
-98 -210 -172 0
14 -211 -111 0
-14 211 -111 0
14 211 -112 0
-14 -211 -112 0
31 -211 -123 0
-31 211 -123 0
31 211 -124 0
-31 -211 -124 0
48 -211 -135 0
-48 211 -135 0
48 211 -136 0
-48 -211 -136 0
65 -211 -147 0
-65 211 -147 0
65 211 -148 0
-65 -211 -148 0
82 -211 -159 0
-82 211 -159 0
82 211 -160 0
-82 -211 -160 0
99 -211 -171 0
-99 211 -171 0
99 211 -172 0
-99 -211 -172 0
15 -111 0
15 -112 0
111 -111 0
112 -112 0
32 -123 0
32 -124 0
123 -123 0
124 -124 0
49 -135 0
49 -136 0
135 -135 0
136 -136 0
66 -147 0
66 -148 0
147 -147 0
148 -148 0
83 -159 0
83 -160 0
159 -159 0
160 -160 0
100 -171 0
100 -172 0
171 -171 0
172 -172 0
16 -212 -111 0
-16 212 -111 0
16 212 -112 0
-16 -212 -112 0
33 -212 -123 0
-33 212 -123 0
33 212 -124 0
-33 -212 -124 0
50 -212 -135 0
-50 212 -135 0
50 212 -136 0
-50 -212 -136 0
67 -212 -147 0
-67 212 -147 0
67 212 -148 0
-67 -212 -148 0
84 -212 -159 0
-84 212 -159 0
84 212 -160 0
-84 -212 -160 0
101 -212 -171 0
-101 212 -171 0
101 212 -172 0
-101 -212 -172 0
17 -213 -111 0
-17 213 -111 0
17 213 -112 0
-17 -213 -112 0
34 -213 -123 0
-34 213 -123 0
34 213 -124 0
-34 -213 -124 0
51 -213 -135 0
-51 213 -135 0
51 213 -136 0
-51 -213 -136 0
68 -213 -147 0
-68 213 -147 0
68 213 -148 0
-68 -213 -148 0
85 -213 -159 0
-85 213 -159 0
85 213 -160 0
-85 -213 -160 0
102 -213 -171 0
-102 213 -171 0
102 213 -172 0
-102 -213 -172 0
-285 111 0
285 -111 0
-286 112 0
285 -112 0
-285 -111 0
-286 -112 0
-297 111 285 0
297 -111 0
297 -285 0
-298 112 286 0
298 -112 0
298 -286 0
-297 -123 0
-298 -124 0
-309 123 297 0
309 -123 0
309 -297 0
-310 124 298 0
310 -124 0
310 -298 0
-309 -135 0
-310 -136 0
-321 135 309 0
321 -135 0
321 -309 0
-322 136 310 0
322 -136 0
322 -310 0
-321 -147 0
-322 -148 0
-333 147 321 0
333 -147 0
333 -321 0
-334 148 322 0
334 -148 0
334 -322 0
-333 -159 0
-334 -160 0
-345 159 333 0
345 -159 0
345 -333 0
-346 160 334 0
346 -160 0
346 -334 0
-345 -171 0
-346 -172 0
345 0
346 0
1 -214 -113 0
-1 214 -113 0
1 214 -114 0
-1 -214 -114 0
18 -214 -125 0
-18 214 -125 0
18 214 -126 0
-18 -214 -126 0
35 -214 -137 0
-35 214 -137 0
35 214 -138 0
-35 -214 -138 0
52 -214 -149 0
-52 214 -149 0
52 214 -150 0
-52 -214 -150 0
69 -214 -161 0
-69 214 -161 0
69 214 -162 0
-69 -214 -162 0
86 -214 -173 0
-86 214 -173 0
86 214 -174 0
-86 -214 -174 0
2 -113 0
2 -114 0
113 -113 0
114 -114 0
19 -125 0
19 -126 0
125 -125 0
126 -126 0
36 -137 0
36 -138 0
137 -137 0
138 -138 0
53 -149 0
53 -150 0
149 -149 0
150 -150 0
70 -161 0
70 -162 0
161 -161 0
162 -162 0
87 -173 0
87 -174 0
173 -173 0
174 -174 0
3 -113 0
3 -114 0
113 -113 0
114 -114 0
20 -125 0
20 -126 0
125 -125 0
126 -126 0
37 -137 0
37 -138 0
137 -137 0
138 -138 0
54 -149 0
54 -150 0
149 -149 0
150 -150 0
71 -161 0
71 -162 0
161 -161 0
162 -162 0
88 -173 0
88 -174 0
173 -173 0
174 -174 0
4 -113 0
4 -114 0
113 -113 0
114 -114 0
21 -125 0
21 -126 0
125 -125 0
126 -126 0
38 -137 0
38 -138 0
137 -137 0
138 -138 0
55 -149 0
55 -150 0
149 -149 0
150 -150 0
72 -161 0
72 -162 0
161 -161 0
162 -162 0
89 -173 0
89 -174 0
173 -173 0
174 -174 0
5 -113 0
5 -114 0
113 -113 0
114 -114 0
22 -125 0
22 -126 0
125 -125 0
126 -126 0
39 -137 0
39 -138 0
137 -137 0
138 -138 0
56 -149 0
56 -150 0
149 -149 0
150 -150 0
73 -161 0
73 -162 0
161 -161 0
162 -162 0
90 -173 0
90 -174 0
173 -173 0
174 -174 0
6 -215 -113 0
-6 215 -113 0
6 215 -114 0
-6 -215 -114 0
23 -215 -125 0
-23 215 -125 0
23 215 -126 0
-23 -215 -126 0
40 -215 -137 0
-40 215 -137 0
40 215 -138 0
-40 -215 -138 0
57 -215 -149 0
-57 215 -149 0
57 215 -150 0
-57 -215 -150 0
74 -215 -161 0
-74 215 -161 0
74 215 -162 0
-74 -215 -162 0
91 -215 -173 0
-91 215 -173 0
91 215 -174 0
-91 -215 -174 0
7 -216 -113 0
-7 216 -113 0
7 216 -114 0
-7 -216 -114 0
24 -216 -125 0
-24 216 -125 0
24 216 -126 0
-24 -216 -126 0
41 -216 -137 0
-41 216 -137 0
41 216 -138 0
-41 -216 -138 0
58 -216 -149 0
-58 216 -149 0
58 216 -150 0
-58 -216 -150 0
75 -216 -161 0
-75 216 -161 0
75 216 -162 0
-75 -216 -162 0
92 -216 -173 0
-92 216 -173 0
92 216 -174 0
-92 -216 -174 0
8 -217 -113 0
-8 217 -113 0
8 217 -114 0
-8 -217 -114 0
25 -217 -125 0
-25 217 -125 0
25 217 -126 0
-25 -217 -126 0
42 -217 -137 0
-42 217 -137 0
42 217 -138 0
-42 -217 -138 0
59 -217 -149 0
-59 217 -149 0
59 217 -150 0
-59 -217 -150 0
76 -217 -161 0
-76 217 -161 0
76 217 -162 0
-76 -217 -162 0
93 -217 -173 0
-93 217 -173 0
93 217 -174 0
-93 -217 -174 0
9 -113 0
9 -114 0
113 -113 0
114 -114 0
26 -125 0
26 -126 0
125 -125 0
126 -126 0
43 -137 0
43 -138 0
137 -137 0
138 -138 0
60 -149 0
60 -150 0
149 -149 0
150 -150 0
77 -161 0
77 -162 0
161 -161 0
162 -162 0
94 -173 0
94 -174 0
173 -173 0
174 -174 0
10 -113 0
10 -114 0
113 -113 0
114 -114 0
27 -125 0
27 -126 0
125 -125 0
126 -126 0
44 -137 0
44 -138 0
137 -137 0
138 -138 0
61 -149 0
61 -150 0
149 -149 0
150 -150 0
78 -161 0
78 -162 0
161 -161 0
162 -162 0
95 -173 0
95 -174 0
173 -173 0
174 -174 0
11 -113 0
11 -114 0
113 -113 0
114 -114 0
28 -125 0
28 -126 0
125 -125 0
126 -126 0
45 -137 0
45 -138 0
137 -137 0
138 -138 0
62 -149 0
62 -150 0
149 -149 0
150 -150 0
79 -161 0
79 -162 0
161 -161 0
162 -162 0
96 -173 0
96 -174 0
173 -173 0
174 -174 0
12 -113 0
12 -114 0
113 -113 0
114 -114 0
29 -125 0
29 -126 0
125 -125 0
126 -126 0
46 -137 0
46 -138 0
137 -137 0
138 -138 0
63 -149 0
63 -150 0
149 -149 0
150 -150 0
80 -161 0
80 -162 0
161 -161 0
162 -162 0
97 -173 0
97 -174 0
173 -173 0
174 -174 0
-13 -113 0
-13 -114 0
113 -113 0
114 -114 0
-30 -125 0
-30 -126 0
125 -125 0
126 -126 0
-47 -137 0
-47 -138 0
137 -137 0
138 -138 0
-64 -149 0
-64 -150 0
149 -149 0
150 -150 0
-81 -161 0
-81 -162 0
161 -161 0
162 -162 0
-98 -173 0
-98 -174 0
173 -173 0
174 -174 0
14 -113 0
14 -114 0
113 -113 0
114 -114 0
31 -125 0
31 -126 0
125 -125 0
126 -126 0
48 -137 0
48 -138 0
137 -137 0
138 -138 0
65 -149 0
65 -150 0
149 -149 0
150 -150 0
82 -161 0
82 -162 0
161 -161 0
162 -162 0
99 -173 0
99 -174 0
173 -173 0
174 -174 0
15 -113 0
15 -114 0
113 -113 0
114 -114 0
32 -125 0
32 -126 0
125 -125 0
126 -126 0
49 -137 0
49 -138 0
137 -137 0
138 -138 0
66 -149 0
66 -150 0
149 -149 0
150 -150 0
83 -161 0
83 -162 0
161 -161 0
162 -162 0
100 -173 0
100 -174 0
173 -173 0
174 -174 0
-16 -113 0
-16 -114 0
113 -113 0
114 -114 0
-33 -125 0
-33 -126 0
125 -125 0
126 -126 0
-50 -137 0
-50 -138 0
137 -137 0
138 -138 0
-67 -149 0
-67 -150 0
149 -149 0
150 -150 0
-84 -161 0
-84 -162 0
161 -161 0
162 -162 0
-101 -173 0
-101 -174 0
173 -173 0
174 -174 0
-17 -113 0
-17 -114 0
113 -113 0
114 -114 0
-34 -125 0
-34 -126 0
125 -125 0
126 -126 0
-51 -137 0
-51 -138 0
137 -137 0
138 -138 0
-68 -149 0
-68 -150 0
149 -149 0
150 -150 0
-85 -161 0
-85 -162 0
161 -161 0
162 -162 0
-102 -173 0
-102 -174 0
173 -173 0
174 -174 0
-287 113 0
287 -113 0
-288 114 0
287 -114 0
-287 -113 0
-288 -114 0
-299 113 287 0
299 -113 0
299 -287 0
-300 114 288 0
300 -114 0
300 -288 0
-299 -125 0
-300 -126 0
-311 125 299 0
311 -125 0
311 -299 0
-312 126 300 0
312 -126 0
312 -300 0
-311 -137 0
-312 -138 0
-323 137 311 0
323 -137 0
323 -311 0
-324 138 312 0
324 -138 0
324 -312 0
-323 -149 0
-324 -150 0
-335 149 323 0
335 -149 0
335 -323 0
-336 150 324 0
336 -150 0
336 -324 0
-335 -161 0
-336 -162 0
-347 161 335 0
347 -161 0
347 -335 0
-348 162 336 0
348 -162 0
348 -336 0
-347 -173 0
-348 -174 0
347 0
348 0
